c File: flat30_3_0.col
c
c SOURCE: Joseph Culberson (joe@cs.ualberta.ca)
c DESCRIPTION: Quasi-random coloring problem
c              generated with flatness = 0
c                             probability = 0.200
c                             known coloring = 3
c                             random seed = 233102
c              Creation Date:  Fri Nov 29 22:02:00 1996
c Maximum degree = 6 Minimum degree = 1
c
c cnf created by edge2cnf
p cnf 90 300
-1 -2 0
-1 -3 0
-2 -3 0
1 2 3 0
-4 -5 0
-4 -6 0
-5 -6 0
4 5 6 0
-7 -8 0
-7 -9 0
-8 -9 0
7 8 9 0
-10 -11 0
-10 -12 0
-11 -12 0
10 11 12 0
-13 -14 0
-13 -15 0
-14 -15 0
13 14 15 0
-16 -17 0
-16 -18 0
-17 -18 0
16 17 18 0
-19 -20 0
-19 -21 0
-20 -21 0
19 20 21 0
-22 -23 0
-22 -24 0
-23 -24 0
22 23 24 0
-25 -26 0
-25 -27 0
-26 -27 0
25 26 27 0
-28 -29 0
-28 -30 0
-29 -30 0
28 29 30 0
-31 -32 0
-31 -33 0
-32 -33 0
31 32 33 0
-34 -35 0
-34 -36 0
-35 -36 0
34 35 36 0
-37 -38 0
-37 -39 0
-38 -39 0
37 38 39 0
-40 -41 0
-40 -42 0
-41 -42 0
40 41 42 0
-43 -44 0
-43 -45 0
-44 -45 0
43 44 45 0
-46 -47 0
-46 -48 0
-47 -48 0
46 47 48 0
-49 -50 0
-49 -51 0
-50 -51 0
49 50 51 0
-52 -53 0
-52 -54 0
-53 -54 0
52 53 54 0
-55 -56 0
-55 -57 0
-56 -57 0
55 56 57 0
-58 -59 0
-58 -60 0
-59 -60 0
58 59 60 0
-61 -62 0
-61 -63 0
-62 -63 0
61 62 63 0
-64 -65 0
-64 -66 0
-65 -66 0
64 65 66 0
-67 -68 0
-67 -69 0
-68 -69 0
67 68 69 0
-70 -71 0
-70 -72 0
-71 -72 0
70 71 72 0
-73 -74 0
-73 -75 0
-74 -75 0
73 74 75 0
-76 -77 0
-76 -78 0
-77 -78 0
76 77 78 0
-79 -80 0
-79 -81 0
-80 -81 0
79 80 81 0
-82 -83 0
-82 -84 0
-83 -84 0
82 83 84 0
-85 -86 0
-85 -87 0
-86 -87 0
85 86 87 0
-88 -89 0
-88 -90 0
-89 -90 0
88 89 90 0
-34 -1 0
-35 -2 0
-36 -3 0
-46 -1 0
-47 -2 0
-48 -3 0
-79 -1 0
-80 -2 0
-81 -3 0
-85 -1 0
-86 -2 0
-87 -3 0
-34 -4 0
-35 -5 0
-36 -6 0
-37 -4 0
-38 -5 0
-39 -6 0
-52 -4 0
-53 -5 0
-54 -6 0
-67 -4 0
-68 -5 0
-69 -6 0
-40 -7 0
-41 -8 0
-42 -9 0
-52 -7 0
-53 -8 0
-54 -9 0
-67 -7 0
-68 -8 0
-69 -9 0
-55 -10 0
-56 -11 0
-57 -12 0
-64 -10 0
-65 -11 0
-66 -12 0
-88 -10 0
-89 -11 0
-90 -12 0
-55 -13 0
-56 -14 0
-57 -15 0
-58 -13 0
-59 -14 0
-60 -15 0
-64 -13 0
-65 -14 0
-66 -15 0
-76 -13 0
-77 -14 0
-78 -15 0
-43 -16 0
-44 -17 0
-45 -18 0
-73 -16 0
-74 -17 0
-75 -18 0
-85 -16 0
-86 -17 0
-87 -18 0
-55 -19 0
-56 -20 0
-57 -21 0
-58 -19 0
-59 -20 0
-60 -21 0
-61 -19 0
-62 -20 0
-63 -21 0
-64 -19 0
-65 -20 0
-66 -21 0
-79 -19 0
-80 -20 0
-81 -21 0
-37 -22 0
-38 -23 0
-39 -24 0
-43 -22 0
-44 -23 0
-45 -24 0
-58 -22 0
-59 -23 0
-60 -24 0
-61 -22 0
-62 -23 0
-63 -24 0
-67 -22 0
-68 -23 0
-69 -24 0
-70 -22 0
-71 -23 0
-72 -24 0
-37 -25 0
-38 -26 0
-39 -27 0
-43 -25 0
-44 -26 0
-45 -27 0
-52 -25 0
-53 -26 0
-54 -27 0
-70 -25 0
-71 -26 0
-72 -27 0
-82 -25 0
-83 -26 0
-84 -27 0
-85 -25 0
-86 -26 0
-87 -27 0
-31 -28 0
-32 -29 0
-33 -30 0
-76 -28 0
-77 -29 0
-78 -30 0
-73 -31 0
-74 -32 0
-75 -33 0
-82 -31 0
-83 -32 0
-84 -33 0
-70 -34 0
-71 -35 0
-72 -36 0
-73 -34 0
-74 -35 0
-75 -36 0
-85 -34 0
-86 -35 0
-87 -36 0
-70 -37 0
-71 -38 0
-72 -39 0
-85 -37 0
-86 -38 0
-87 -39 0
-88 -37 0
-89 -38 0
-90 -39 0
-85 -40 0
-86 -41 0
-87 -42 0
-67 -43 0
-68 -44 0
-69 -45 0
-73 -43 0
-74 -44 0
-75 -45 0
-64 -46 0
-65 -47 0
-66 -48 0
-67 -46 0
-68 -47 0
-69 -48 0
-88 -49 0
-89 -50 0
-90 -51 0
-61 -52 0
-62 -53 0
-63 -54 0
-88 -52 0
-89 -53 0
-90 -54 0
-64 -55 0
-65 -56 0
-66 -57 0
-61 -58 0
-62 -59 0
-63 -60 0
-70 -58 0
-71 -59 0
-72 -60 0
-76 -58 0
-77 -59 0
-78 -60 0
